
268
750
   598      2
   597      2
   594      2
   591      3
   590      2
   588      1
   587      2
   586      1
   584      1
   583      1
   582      1
   581      1
   580      3
   579      1
   578      1
   576      1
   573      1
   572      1
   571      2
   569      1
   568      1
   567      2
   566      1
   565      3
   563      4
   562      1
   561      1
   559      2
   558      1
   556      2
   555      1
   553      1
   552      1
   551      2
   550      1
   548      2
   547      1
   546      1
   545      1
   544      1
   541      1
   540      2
   539      1
   535      4
   534      1
   533      3
   531      1
   529      2
   528      1
   527      1
   526      1
   525      2
   524      1
   521      4
   518      1
   517      1
   516      1
   514      2
   513      1
   511      2
   510      1
   509      1
   508      2
   506      2
   502      1
   501      3
   500      1
   499      1
   497      2
   493      1
   491      1
   490      1
   489      1
   485      2
   483      1
   481      1
   480      1
   478      1
   476      1
   469      1
   468      2
   466      1
   463      1
   461      2
   460      2
   456      1
   455      2
   454      2
   453      2
   449      2
   447      1
   446      2
   445      1
   444      2
   441      1
   438      1
   434      2
   433      1
   431      6
   429      1
   428      1
   427      1
   425      2
   422      2
   421      1
   420      1
   418      1
   417      2
   416      1
   415      2
   414      1
   412      3
   409      1
   408      1
   406      1
   405      1
   402      2
   400      1
   397      1
   395      1
   391      2
   388      1
   387      1
   386      2
   384      1
   383      1
   382      2
   380      3
   379      1
   378      1
   377      1
   376      2
   374      1
   373      1
   372      2
   371      1
   370      2
   369      1
   367      4
   366      1
   364      1
   363      1
   361      1
   360      2
   357      1
   355      4
   353      1
   351      1
   350      2
   349      1
   348      3
   346      1
   345      2
   343      2
   341      1
   340      1
   339      3
   338      2
   335      1
   334      3
   331      1
   330      1
   329      1
   327      3
   326      1
   323      2
   321      1
   320      3
   318      2
   317      1
   316      1
   315      1
   314      2
   310      4
   308      2
   306      1
   305      1
   303      1
   302      1
   301      1
   300      2
   298      2
   297      2
   295      1
   293      1
   292      2
   291      1
   289      1
   288      2
   286      1
   284      2
   283      1
   278      1
   277      1
   275      3
   273      2
   272      1
   271      2
   268      1
   267      2
   266      1
   265      1
   263      1
   261      2
   259      1
   258      2
   255      1
   254      2
   253      1
   252      1
   250      1
   249      1
   248      2
   247      1
   245      1
   244      1
   242      1
   241      1
   239      2
   238      1
   237      1
   235      1
   232      2
   228      1
   227      1
   225      1
   224      1
   222      3
   221      1
   220      2
   216      1
   215      1
   213      1
   212      1
   209      2
   206      2
   205      1
   204      1
   199      1
   197      1
   195      1
   193      1
   192      3
   191      2
   189      1
   188      1
   186      1
   185      1
   184      2
   182      2
   181      1
   179      1
   178      2
   177      2
   176      1
   175      1
   174      1
   173      2
   171      1
   170      1
   169      2
   167      1
   166      2
   161      1
   160      3
   159      1
   157      1
   151      2




The initial LP solution: time=0.29


File: BPP_400_750_0.2_0.8_7.txt  Instance No. 1
Wed Feb 25 13:39:00 2015

LP solution: lpval=213 lpbnd=213

2: 0:1 267:1 obj 1\\
2: 1:1 obj 1\\
2: 2:1 obj 1\\
1: 3:1 obj 1\\
1: 3:1 265:1 obj 1\\
1: 3:1 266:1 obj 1\\
2: 4:1 264:1 obj 1\\
1: 5:1 263:1 obj 1\\
2: 6:1 264:1 obj 1\\
1: 7:1 obj 1\\
1: 8:1 262:1 obj 1\\
1: 9:1 261:1 obj 1\\
1: 10:1 262:1 obj 1\\
1: 11:1 260:1 obj 1\\
1: 12:1 259:1 obj 1\\
2: 12:1 260:1 obj 1\\
1: 13:1 258:1 obj 1\\
1: 14:1 obj 1\\
1: 15:1 256:1 obj 1\\
1: 16:1 253:1 obj 1\\
1: 17:1 252:1 obj 1\\
1: 18:1 251:1 obj 1\\
1: 18:1 252:1 obj 1\\
1: 19:1 250:1 obj 1\\
1: 20:1 249:1 obj 1\\
2: 21:1 253:1 obj 1\\
1: 22:1 248:1 obj 1\\
2: 23:1 obj 1\\
1: 23:1 247:1 obj 1\\
3: 24:1 obj 1\\
1: 24:1 246:1 obj 1\\
1: 25:1 245:1 obj 1\\
1: 26:1 244:1 obj 1\\
2: 27:1 243:1 obj 1\\
1: 28:1 242:1 obj 1\\
1: 29:1 obj 1\\
1: 29:1 241:1 obj 1\\
1: 30:1 240:1 obj 1\\
1: 31:1 239:1 obj 1\\
1: 32:1 242:1 obj 1\\
1: 33:1 obj 1\\
1: 33:1 238:1 obj 1\\
1: 34:1 242:1 obj 1\\
2: 35:1 248:1 obj 1\\
1: 36:1 249:1 obj 1\\
1: 37:1 237:1 obj 1\\
1: 38:1 236:1 obj 1\\
1: 39:1 235:1 obj 1\\
1: 40:1 234:1 obj 1\\
2: 41:1 234:1 obj 1\\
1: 42:1 235:1 obj 1\\
3: 43:1 obj 1\\
1: 43:1 231:1 obj 1\\
1: 44:1 230:1 obj 1\\
2: 45:1 obj 1\\
1: 45:1 232:1 obj 1\\
1: 46:1 233:1 obj 1\\
1: 47:1 obj 1\\
1: 47:1 228:1 obj 1\\
1: 48:1 227:1 obj 1\\
1: 49:1 229:1 obj 1\\
1: 50:1 226:1 obj 1\\
1: 51:1 225:1 obj 1\\
1: 51:1 227:1 obj 1\\
1: 52:1 227:1 obj 1\\
2: 53:1 obj 1\\
1: 53:1 223:1 obj 1\\
1: 53:1 224:1 obj 1\\
1: 54:1 222:1 obj 1\\
1: 55:1 222:1 obj 1\\
1: 56:1 229:1 obj 1\\
1: 57:1 obj 1\\
1: 57:1 221:1 obj 1\\
1: 58:1 220:1 obj 1\\
2: 59:1 218:1 obj 1\\
1: 60:1 219:1 obj 1\\
1: 61:1 217:1 obj 1\\
1: 62:1 obj 1\\
1: 62:1 216:1 obj 1\\
1: 63:1 obj 1\\
1: 63:1 215:1 obj 1\\
1: 64:1 212:1 obj 1\\
1: 65:1 211:1 obj 1\\
1: 65:1 212:1 obj 1\\
1: 65:1 214:1 obj 1\\
1: 66:1 210:1 obj 1\\
1: 67:1 213:1 obj 1\\
1: 68:1 208:1 obj 1\\
1: 68:1 209:1 obj 1\\
1: 69:1 206:1 obj 1\\
1: 70:1 204:1 obj 1\\
1: 71:1 205:1 obj 1\\
1: 72:1 203:1 obj 1\\
1: 73:1 201:1 obj 1\\
1: 73:1 205:1 obj 1\\
1: 74:1 199:1 obj 1\\
1: 75:1 198:1 obj 1\\
1: 76:1 200:1 obj 1\\
1: 77:1 196:1 obj 1\\
1: 78:1 195:1 obj 1\\
1: 79:1 192:1 obj 1\\
1: 80:1 193:1 obj 1\\
1: 80:1 194:1 obj 1\\
1: 81:1 190:1 obj 1\\
1: 82:1 189:1 obj 1\\
1: 83:1 187:1 obj 1\\
1: 83:1 207:1 obj 1\\
2: 84:1 188:1 obj 1\\
1: 85:1 184:1 obj 1\\
1: 86:1 183:1 obj 1\\
1: 86:1 207:1 obj 1\\
2: 87:1 185:1 obj 1\\
2: 88:1 182:1 obj 1\\
1: 89:1 179:1 obj 1\\
1: 89:1 203:1 obj 1\\
1: 90:1 177:1 obj 1\\
1: 91:1 178:1 obj 1\\
1: 91:1 195:1 obj 1\\
1: 92:1 176:1 obj 1\\
1: 93:1 175:1 obj 1\\
1: 93:1 197:1 obj 1\\
1: 94:1 174:1 obj 1\\
1: 95:1 173:1 obj 1\\
1: 96:1 170:1 obj 1\\
1: 96:1 174:1 obj 1\\
1: 97:1 169:1 obj 1\\
2: 98:1 168:1 obj 1\\
3: 98:1 173:1 obj 1\\
1: 98:1 181:1 obj 1\\
1: 99:1 166:1 obj 1\\
1: 100:1 167:1 obj 1\\
1: 101:1 165:1 obj 1\\
1: 102:1 171:1 obj 1\\
1: 102:1 172:1 obj 1\\
2: 103:1 163:1 obj 1\\
1: 104:1 162:1 obj 1\\
1: 105:1 161:1 obj 1\\
1: 106:1 160:1 obj 1\\
1: 107:1 164:1 obj 1\\
1: 107:1 167:1 obj 1\\
1: 108:1 159:1 obj 1\\
1: 109:1 158:1 obj 1\\
1: 109:1 163:1 obj 1\\
1: 110:1 159:1 obj 1\\
2: 111:1 157:1 obj 1\\
1: 111:1 181:1 obj 1\\
1: 112:1 154:1 obj 1\\
1: 113:1 155:1 obj 1\\
1: 114:1 153:1 obj 1\\
1: 115:1 152:1 obj 1\\
2: 116:1 150:1 obj 1\\
1: 117:1 148:1 obj 1\\
1: 118:1 146:1 obj 1\\
1: 119:1 145:1 obj 1\\
1: 120:1 144:1 obj 1\\
1: 120:1 147:1 obj 1\\
1: 121:1 142:1 obj 1\\
1: 122:1 141:1 obj 1\\
1: 123:1 140:1 obj 1\\
1: 123:1 143:1 obj 1\\
1: 124:1 139:1 obj 1\\
1: 125:1 138:1 obj 1\\
2: 126:1 138:1 obj 1\\
2: 127:1 136:1 obj 1\\
1: 127:1 137:1 obj 1\\
1: 128:1 135:1 obj 1\\
1: 129:1 134:1 obj 1\\
1: 130:1 133:1 obj 1\\
1: 131:1 132:1 obj 1\\
1: 131:1 153:1 obj 1\\
1: 134:1 159:1 obj 1\\
1: 138:1 152:1 obj 1\\
1: 143:1 145:1 obj 1\\
1: 145:2 obj 1\\
1: 148:1 149:1 obj 1\\
1: 150:1 151:1 obj 1\\
1: 156:1 165:1 obj 1\\
1: 156:2 obj 1\\
1: 167:1 197:1 obj 1\\
1: 172:1 202:1 257:1 obj 1\\
1: 180:1 194:1 255:1 obj 1\\
1: 180:1 194:1 257:1 obj 1\\
1: 186:1 191:1 254:1 obj 1\\
1: 190:1 199:1 obj 1\\
1: 234:-1 obj 0\\
1: 248:-1 obj 0\\
1: 253:-1 obj 0\\
1: 260:-1 obj 0\\
1: 264:-1 obj 0\\






File: BPP_400_750_0.2_0.8_7.txt  Instance No. 1
Wed Feb 25 13:39:00 2015

LP0 Time: 0.29 IPTime: 0.29 The best integer solution (213):

2: 0:1 267:1 obj 1\\
2: 1:1 obj 1\\
2: 2:1 obj 1\\
1: 3:1 obj 1\\
1: 3:1 265:1 obj 1\\
1: 3:1 266:1 obj 1\\
2: 4:1 264:1 obj 1\\
1: 5:1 263:1 obj 1\\
2: 6:1 264:1 obj 1\\
1: 7:1 obj 1\\
1: 8:1 262:1 obj 1\\
1: 9:1 261:1 obj 1\\
1: 10:1 262:1 obj 1\\
1: 11:1 260:1 obj 1\\
1: 12:1 259:1 obj 1\\
2: 12:1 260:1 obj 1\\
1: 13:1 258:1 obj 1\\
1: 14:1 obj 1\\
1: 15:1 256:1 obj 1\\
1: 16:1 253:1 obj 1\\
1: 17:1 252:1 obj 1\\
1: 18:1 251:1 obj 1\\
1: 18:1 252:1 obj 1\\
1: 19:1 250:1 obj 1\\
1: 20:1 249:1 obj 1\\
2: 21:1 253:1 obj 1\\
1: 22:1 248:1 obj 1\\
2: 23:1 obj 1\\
1: 23:1 247:1 obj 1\\
3: 24:1 obj 1\\
1: 24:1 246:1 obj 1\\
1: 25:1 245:1 obj 1\\
1: 26:1 244:1 obj 1\\
2: 27:1 243:1 obj 1\\
1: 28:1 242:1 obj 1\\
1: 29:1 obj 1\\
1: 29:1 241:1 obj 1\\
1: 30:1 240:1 obj 1\\
1: 31:1 239:1 obj 1\\
1: 32:1 242:1 obj 1\\
1: 33:1 obj 1\\
1: 33:1 238:1 obj 1\\
1: 34:1 242:1 obj 1\\
2: 35:1 248:1 obj 1\\
1: 36:1 249:1 obj 1\\
1: 37:1 237:1 obj 1\\
1: 38:1 236:1 obj 1\\
1: 39:1 235:1 obj 1\\
1: 40:1 234:1 obj 1\\
2: 41:1 234:1 obj 1\\
1: 42:1 235:1 obj 1\\
3: 43:1 obj 1\\
1: 43:1 231:1 obj 1\\
1: 44:1 230:1 obj 1\\
2: 45:1 obj 1\\
1: 45:1 232:1 obj 1\\
1: 46:1 233:1 obj 1\\
1: 47:1 obj 1\\
1: 47:1 228:1 obj 1\\
1: 48:1 227:1 obj 1\\
1: 49:1 229:1 obj 1\\
1: 50:1 226:1 obj 1\\
1: 51:1 225:1 obj 1\\
1: 51:1 227:1 obj 1\\
1: 52:1 227:1 obj 1\\
2: 53:1 obj 1\\
1: 53:1 223:1 obj 1\\
1: 53:1 224:1 obj 1\\
1: 54:1 222:1 obj 1\\
1: 55:1 222:1 obj 1\\
1: 56:1 229:1 obj 1\\
1: 57:1 obj 1\\
1: 57:1 221:1 obj 1\\
1: 58:1 220:1 obj 1\\
2: 59:1 218:1 obj 1\\
1: 60:1 219:1 obj 1\\
1: 61:1 217:1 obj 1\\
1: 62:1 obj 1\\
1: 62:1 216:1 obj 1\\
1: 63:1 obj 1\\
1: 63:1 215:1 obj 1\\
1: 64:1 212:1 obj 1\\
1: 65:1 211:1 obj 1\\
1: 65:1 212:1 obj 1\\
1: 65:1 214:1 obj 1\\
1: 66:1 210:1 obj 1\\
1: 67:1 213:1 obj 1\\
1: 68:1 208:1 obj 1\\
1: 68:1 209:1 obj 1\\
1: 69:1 206:1 obj 1\\
1: 70:1 204:1 obj 1\\
1: 71:1 205:1 obj 1\\
1: 72:1 203:1 obj 1\\
1: 73:1 201:1 obj 1\\
1: 73:1 205:1 obj 1\\
1: 74:1 199:1 obj 1\\
1: 75:1 198:1 obj 1\\
1: 76:1 200:1 obj 1\\
1: 77:1 196:1 obj 1\\
1: 78:1 195:1 obj 1\\
1: 79:1 192:1 obj 1\\
1: 80:1 193:1 obj 1\\
1: 80:1 194:1 obj 1\\
1: 81:1 190:1 obj 1\\
1: 82:1 189:1 obj 1\\
1: 83:1 187:1 obj 1\\
1: 83:1 207:1 obj 1\\
2: 84:1 188:1 obj 1\\
1: 85:1 184:1 obj 1\\
1: 86:1 183:1 obj 1\\
1: 86:1 207:1 obj 1\\
2: 87:1 185:1 obj 1\\
2: 88:1 182:1 obj 1\\
1: 89:1 179:1 obj 1\\
1: 89:1 203:1 obj 1\\
1: 90:1 177:1 obj 1\\
1: 91:1 178:1 obj 1\\
1: 91:1 195:1 obj 1\\
1: 92:1 176:1 obj 1\\
1: 93:1 175:1 obj 1\\
1: 93:1 197:1 obj 1\\
1: 94:1 174:1 obj 1\\
1: 95:1 173:1 obj 1\\
1: 96:1 170:1 obj 1\\
1: 96:1 174:1 obj 1\\
1: 97:1 169:1 obj 1\\
2: 98:1 168:1 obj 1\\
3: 98:1 173:1 obj 1\\
1: 98:1 181:1 obj 1\\
1: 99:1 166:1 obj 1\\
1: 100:1 167:1 obj 1\\
1: 101:1 165:1 obj 1\\
1: 102:1 171:1 obj 1\\
1: 102:1 172:1 obj 1\\
2: 103:1 163:1 obj 1\\
1: 104:1 162:1 obj 1\\
1: 105:1 161:1 obj 1\\
1: 106:1 160:1 obj 1\\
1: 107:1 164:1 obj 1\\
1: 107:1 167:1 obj 1\\
1: 108:1 159:1 obj 1\\
1: 109:1 158:1 obj 1\\
1: 109:1 163:1 obj 1\\
1: 110:1 159:1 obj 1\\
2: 111:1 157:1 obj 1\\
1: 111:1 181:1 obj 1\\
1: 112:1 154:1 obj 1\\
1: 113:1 155:1 obj 1\\
1: 114:1 153:1 obj 1\\
1: 115:1 152:1 obj 1\\
2: 116:1 150:1 obj 1\\
1: 117:1 148:1 obj 1\\
1: 118:1 146:1 obj 1\\
1: 119:1 145:1 obj 1\\
1: 120:1 144:1 obj 1\\
1: 120:1 147:1 obj 1\\
1: 121:1 142:1 obj 1\\
1: 122:1 141:1 obj 1\\
1: 123:1 140:1 obj 1\\
1: 123:1 143:1 obj 1\\
1: 124:1 139:1 obj 1\\
1: 125:1 138:1 obj 1\\
2: 126:1 138:1 obj 1\\
2: 127:1 136:1 obj 1\\
1: 127:1 137:1 obj 1\\
1: 128:1 135:1 obj 1\\
1: 129:1 134:1 obj 1\\
1: 130:1 133:1 obj 1\\
1: 131:1 132:1 obj 1\\
1: 131:1 153:1 obj 1\\
1: 134:1 159:1 obj 1\\
1: 138:1 152:1 obj 1\\
1: 143:1 145:1 obj 1\\
1: 145:2 obj 1\\
1: 148:1 149:1 obj 1\\
1: 150:1 151:1 obj 1\\
1: 156:1 165:1 obj 1\\
1: 156:2 obj 1\\
1: 167:1 197:1 obj 1\\
1: 172:1 202:1 257:1 obj 1\\
1: 180:1 194:1 255:1 obj 1\\
1: 180:1 194:1 257:1 obj 1\\
1: 186:1 191:1 254:1 obj 1\\
1: 190:1 199:1 obj 1\\



The last LP solution 


File: BPP_400_750_0.2_0.8_7.txt  Instance No. 1
Wed Feb 25 13:39:00 2015

LP solution: lpval=213 lpbnd=213

2: 0:1 267:1 obj 1\\
2: 1:1 obj 1\\
2: 2:1 obj 1\\
1: 3:1 obj 1\\
1: 3:1 265:1 obj 1\\
1: 3:1 266:1 obj 1\\
2: 4:1 264:1 obj 1\\
1: 5:1 263:1 obj 1\\
2: 6:1 264:1 obj 1\\
1: 7:1 obj 1\\
1: 8:1 262:1 obj 1\\
1: 9:1 261:1 obj 1\\
1: 10:1 262:1 obj 1\\
1: 11:1 260:1 obj 1\\
1: 12:1 259:1 obj 1\\
2: 12:1 260:1 obj 1\\
1: 13:1 258:1 obj 1\\
1: 14:1 obj 1\\
1: 15:1 256:1 obj 1\\
1: 16:1 253:1 obj 1\\
1: 17:1 252:1 obj 1\\
1: 18:1 251:1 obj 1\\
1: 18:1 252:1 obj 1\\
1: 19:1 250:1 obj 1\\
1: 20:1 249:1 obj 1\\
2: 21:1 253:1 obj 1\\
1: 22:1 248:1 obj 1\\
2: 23:1 obj 1\\
1: 23:1 247:1 obj 1\\
3: 24:1 obj 1\\
1: 24:1 246:1 obj 1\\
1: 25:1 245:1 obj 1\\
1: 26:1 244:1 obj 1\\
2: 27:1 243:1 obj 1\\
1: 28:1 242:1 obj 1\\
1: 29:1 obj 1\\
1: 29:1 241:1 obj 1\\
1: 30:1 240:1 obj 1\\
1: 31:1 239:1 obj 1\\
1: 32:1 242:1 obj 1\\
1: 33:1 obj 1\\
1: 33:1 238:1 obj 1\\
1: 34:1 242:1 obj 1\\
2: 35:1 248:1 obj 1\\
1: 36:1 249:1 obj 1\\
1: 37:1 237:1 obj 1\\
1: 38:1 236:1 obj 1\\
1: 39:1 235:1 obj 1\\
1: 40:1 234:1 obj 1\\
2: 41:1 234:1 obj 1\\
1: 42:1 235:1 obj 1\\
3: 43:1 obj 1\\
1: 43:1 231:1 obj 1\\
1: 44:1 230:1 obj 1\\
2: 45:1 obj 1\\
1: 45:1 232:1 obj 1\\
1: 46:1 233:1 obj 1\\
1: 47:1 obj 1\\
1: 47:1 228:1 obj 1\\
1: 48:1 227:1 obj 1\\
1: 49:1 229:1 obj 1\\
1: 50:1 226:1 obj 1\\
1: 51:1 225:1 obj 1\\
1: 51:1 227:1 obj 1\\
1: 52:1 227:1 obj 1\\
2: 53:1 obj 1\\
1: 53:1 223:1 obj 1\\
1: 53:1 224:1 obj 1\\
1: 54:1 222:1 obj 1\\
1: 55:1 222:1 obj 1\\
1: 56:1 229:1 obj 1\\
1: 57:1 obj 1\\
1: 57:1 221:1 obj 1\\
1: 58:1 220:1 obj 1\\
2: 59:1 218:1 obj 1\\
1: 60:1 219:1 obj 1\\
1: 61:1 217:1 obj 1\\
1: 62:1 obj 1\\
1: 62:1 216:1 obj 1\\
1: 63:1 obj 1\\
1: 63:1 215:1 obj 1\\
1: 64:1 212:1 obj 1\\
1: 65:1 211:1 obj 1\\
1: 65:1 212:1 obj 1\\
1: 65:1 214:1 obj 1\\
1: 66:1 210:1 obj 1\\
1: 67:1 213:1 obj 1\\
1: 68:1 208:1 obj 1\\
1: 68:1 209:1 obj 1\\
1: 69:1 206:1 obj 1\\
1: 70:1 204:1 obj 1\\
1: 71:1 205:1 obj 1\\
1: 72:1 203:1 obj 1\\
1: 73:1 201:1 obj 1\\
1: 73:1 205:1 obj 1\\
1: 74:1 199:1 obj 1\\
1: 75:1 198:1 obj 1\\
1: 76:1 200:1 obj 1\\
1: 77:1 196:1 obj 1\\
1: 78:1 195:1 obj 1\\
1: 79:1 192:1 obj 1\\
1: 80:1 193:1 obj 1\\
1: 80:1 194:1 obj 1\\
1: 81:1 190:1 obj 1\\
1: 82:1 189:1 obj 1\\
1: 83:1 187:1 obj 1\\
1: 83:1 207:1 obj 1\\
2: 84:1 188:1 obj 1\\
1: 85:1 184:1 obj 1\\
1: 86:1 183:1 obj 1\\
1: 86:1 207:1 obj 1\\
2: 87:1 185:1 obj 1\\
2: 88:1 182:1 obj 1\\
1: 89:1 179:1 obj 1\\
1: 89:1 203:1 obj 1\\
1: 90:1 177:1 obj 1\\
1: 91:1 178:1 obj 1\\
1: 91:1 195:1 obj 1\\
1: 92:1 176:1 obj 1\\
1: 93:1 175:1 obj 1\\
1: 93:1 197:1 obj 1\\
1: 94:1 174:1 obj 1\\
1: 95:1 173:1 obj 1\\
1: 96:1 170:1 obj 1\\
1: 96:1 174:1 obj 1\\
1: 97:1 169:1 obj 1\\
2: 98:1 168:1 obj 1\\
3: 98:1 173:1 obj 1\\
1: 98:1 181:1 obj 1\\
1: 99:1 166:1 obj 1\\
1: 100:1 167:1 obj 1\\
1: 101:1 165:1 obj 1\\
1: 102:1 171:1 obj 1\\
1: 102:1 172:1 obj 1\\
2: 103:1 163:1 obj 1\\
1: 104:1 162:1 obj 1\\
1: 105:1 161:1 obj 1\\
1: 106:1 160:1 obj 1\\
1: 107:1 164:1 obj 1\\
1: 107:1 167:1 obj 1\\
1: 108:1 159:1 obj 1\\
1: 109:1 158:1 obj 1\\
1: 109:1 163:1 obj 1\\
1: 110:1 159:1 obj 1\\
2: 111:1 157:1 obj 1\\
1: 111:1 181:1 obj 1\\
1: 112:1 154:1 obj 1\\
1: 113:1 155:1 obj 1\\
1: 114:1 153:1 obj 1\\
1: 115:1 152:1 obj 1\\
2: 116:1 150:1 obj 1\\
1: 117:1 148:1 obj 1\\
1: 118:1 146:1 obj 1\\
1: 119:1 145:1 obj 1\\
1: 120:1 144:1 obj 1\\
1: 120:1 147:1 obj 1\\
1: 121:1 142:1 obj 1\\
1: 122:1 141:1 obj 1\\
1: 123:1 140:1 obj 1\\
1: 123:1 143:1 obj 1\\
1: 124:1 139:1 obj 1\\
1: 125:1 138:1 obj 1\\
2: 126:1 138:1 obj 1\\
2: 127:1 136:1 obj 1\\
1: 127:1 137:1 obj 1\\
1: 128:1 135:1 obj 1\\
1: 129:1 134:1 obj 1\\
1: 130:1 133:1 obj 1\\
1: 131:1 132:1 obj 1\\
1: 131:1 153:1 obj 1\\
1: 134:1 159:1 obj 1\\
1: 138:1 152:1 obj 1\\
1: 143:1 145:1 obj 1\\
1: 145:2 obj 1\\
1: 148:1 149:1 obj 1\\
1: 150:1 151:1 obj 1\\
1: 156:1 165:1 obj 1\\
1: 156:2 obj 1\\
1: 167:1 197:1 obj 1\\
1: 172:1 202:1 257:1 obj 1\\
1: 180:1 194:1 255:1 obj 1\\
1: 180:1 194:1 257:1 obj 1\\
1: 186:1 191:1 254:1 obj 1\\
1: 190:1 199:1 obj 1\\
1: 234:-1 obj 0\\
1: 248:-1 obj 0\\
1: 253:-1 obj 0\\
1: 260:-1 obj 0\\
1: 264:-1 obj 0\\



